12
36
42
20
28
28
73
220
41
26
45
61
68
25
121
60
128
795
35
39
45
25
26
20
45
323
24
18
24
32
515
38
55
30
39
24
102
107
26
42
33
84
79
39
166
1052
59
40
130
39
49
67
58
48
32
103
453
16
79
80
39
35
97
42
59
46
835
25
105
27
123
69
27
75
78
64
82
31
40
99
71
35
72
121
215
128
84
37
36
55
20
89
76
36
34
39
83
109
346
